import DataTypes.dzn;
import ISafetyCheck.dzn;
import Resolver.dzn;
import Sensors.dzn;

component ArmStrengthCheck {
	requires IArmStrengthSensor iArmStrengthSensor;
	provides ISafetyCheck iArmStrengthCheck;
	requires ISafetyCheck iNext;
	requires injected IResolver iResolver;

	behaviour {
		Behavior and_safety_states(Behavior current, Behavior next) {
			if(current == Behavior.Unsafe || next == Behavior.Unsafe) {
				return Behavior.Unsafe;
			}
			return Behavior.Safe;
		}

		on iArmStrengthCheck.do_check(): {
			Behavior currSafetyState = Behavior.Safe;
			// TODO: Let the data go through the retriever here.
			iArmStrengthSensor.retrieve_arm_str();
			currSafetyState = iResolver.resolve_arm_str();
			
			Behavior nextSafetyState = iNext.do_check();
			Behavior res = and_safety_states(currSafetyState, nextSafetyState); 
			reply(res);
		}
	}
}